(set-logic QF_S)
(declare-fun sigmaStar_0 () String)
(declare-fun sigmaStar_1 () String)
(declare-fun sigmaStar_2 () String)
(declare-fun x_4 () String)
(declare-fun literal_3 () String)
(declare-fun x_5 () String)
(declare-fun len_x_4 () Int)
(declare-fun len_x_5 () Int)
(declare-fun substr_x_4 () String)
(declare-fun substr_x_5 () String)
(assert (= x_4 (str.++ sigmaStar_1 sigmaStar_0)))
(assert (= literal_3 "\x69\x6d\x61\x67\x65"))
(assert (= x_5 (str.++ x_4 literal_3)))
(assert (str.in-re x_5 (re.++ (re.* re.allchar) (re.++ (str.to-re "\x5c\x3c\x53\x43\x52\x49\x50\x54") (re.* re.allchar)))))
(assert (= len_x_4 (str.len x_4)))
(assert (= len_x_5 (str.len x_5)))
(assert (= substr_x_4 (str.substr x_4 1 len_x_4)))
(assert (= substr_x_5 (str.substr x_5 1 len_x_5)))
(assert (str.contains x_5 literal_3))
(assert (str.prefixof sigmaStar_1 x_4))
(assert (str.suffixof sigmaStar_0 x_4))
(assert (>= (str.indexof x_5 literal_3 0) 0))
(assert (= (str.replace x_5 "\x69\x6d\x61\x67\x65" "image") (str.++ x_4 "image")))
(check-sat)
(exit)